WARNING: for repeatability, setting FPU to use double precision
============================[ Problem Statistics ]=============================
|                                                                             |
|  Number of variables:            50                                         |
|  Number of clauses:             218                                         |
|  Parse time:                   0.00 s                                       |
|                                                                             |
============================[ Search Statistics ]==============================
| Conflicts |          ORIGINAL         |          LEARNT          | Progress |
|           |    Vars  Clauses Literals |    Limit  Clauses Lit/Cl |          |
===============================================================================
===============================================================================
restarts              : 1
conflicts             : 3              (2221 /sec)
decisions             : 17             (0.00 % random) (12583 /sec)
propagations          : 95             (70318 /sec)
conflict literals     : 20             (0.00 % deleted)
Memory used           : 20.00 MB
CPU time              : 0.001351 s

SATISFIABLE
